(declare-fun ExpandObjSwitcher () Real)
(declare-fun Constructed_Argument_t () String)
(declare-fun CreateAsClass () Bool)
(declare-fun Constructed_Argument_elements_isTTY_0_t () String)
(assert (= ExpandObjSwitcher 0.0))
(assert (= Constructed_Argument_t "object"))
(assert CreateAsClass)
(assert (= Constructed_Argument_elements_isTTY_0_t "string"))
(check-sat)
